p cnf 117 403
-2 1 0
-2 -1 0
3 4 -5 0
-3 -4 -5 0
3 -4 5 0
-3 4 5 0
6 -7 -8 0
-6 7 -8 0
6 7 8 0
-6 -7 8 0
9 -5 0
9 -8 0
5 8 -9 0
-2 9 -10 0
2 -9 -10 0
-2 -9 10 0
2 9 10 0
-13 11 0
-13 12 0
-11 -12 13 0
14 -13 0
14 -5 0
13 5 -14 0
16 -15 0
16 -7 0
15 7 -16 0
-17 -16 0
-17 6 0
16 -6 17 0
18 -4 0
18 -17 0
4 17 -18 0
-19 -14 0
-19 -18 0
14 18 19 0
20 19 0
20 17 0
-19 -17 -20 0
22 -23 0
-22 -23 0
-25 -6 0
-25 -4 0
6 4 25 0
24 25 -26 0
-24 -25 -26 0
24 -25 26 0
-24 25 26 0
-11 -26 -27 0
11 26 -27 0
-11 26 27 0
11 -26 27 0
-28 23 0
-28 -27 0
-23 27 28 0
-29 -6 0
-29 28 0
6 -28 29 0
-30 21 0
-30 29 0
-21 -29 30 0
-31 20 0
-31 30 0
-20 -30 31 0
-21 -32 -33 0
21 32 -33 0
-21 32 33 0
21 -32 33 0
34 -33 0
34 2 0
33 -2 -34 0
35 14 0
35 -32 0
-14 32 -35 0
34 35 -36 0
-34 -35 -36 0
34 -35 36 0
-34 35 36 0
37 -23 0
37 -15 0
23 15 -37 0
-38 36 0
-38 37 0
-36 -37 38 0
39 -25 0
39 -19 0
25 19 -39 0
-40 -38 0
-40 -39 0
38 39 40 0
-31 -40 -41 0
31 40 -41 0
-31 40 41 0
31 -40 41 0
-10 -41 -42 0
10 41 -42 0
-10 41 42 0
10 -41 42 0
43 -8 0
43 4 0
8 -4 -43 0
44 27 0
44 36 0
-27 -36 -44 0
-45 43 0
-45 -44 0
-43 44 45 0
46 13 0
46 19 0
-13 -19 -46 0
48 46 0
48 -47 0
-46 47 -48 0
49 -34 0
49 21 0
34 -21 -49 0
43 -26 -50 0
-43 26 -50 0
43 26 50 0
-43 -26 50 0
-51 -2 0
-51 -25 0
2 25 51 0
-52 50 0
-52 51 0
-50 -51 52 0
-53 -52 0
-53 52 0
-54 -49 0
-54 -53 0
49 53 54 0
55 48 0
55 54 0
-48 -54 -55 0
-56 45 0
-56 55 0
-45 -55 56 0
32 -57 -58 0
-32 57 -58 0
32 57 58 0
-32 -57 58 0
59 26 0
59 -58 0
-26 58 -59 0
60 -58 0
60 -59 0
58 59 -60 0
-61 -17 0
-61 -60 0
17 60 61 0
62 35 0
62 14 0
-35 -14 -62 0
61 62 -63 0
-61 -62 -63 0
61 -62 63 0
-61 62 63 0
64 37 0
64 -63 0
-37 63 -64 0
13 3 -65 0
-13 -3 -65 0
13 -3 65 0
-13 3 65 0
66 -64 0
66 65 0
64 -65 -66 0
23 18 -67 0
-23 -18 -67 0
23 -18 67 0
-23 18 67 0
68 -67 0
68 -51 0
67 51 -68 0
-69 -57 0
-69 -29 0
57 29 69 0
-68 -69 -70 0
68 69 -70 0
-68 69 70 0
68 -69 70 0
-66 70 -71 0
66 -70 -71 0
-66 -70 71 0
66 70 71 0
56 71 -72 0
-56 -71 -72 0
56 -71 72 0
-56 71 72 0
-73 -42 0
-73 72 0
42 -72 73 0
-74 67 0
-74 60 0
-67 -60 74 0
-75 13 0
-75 -1 0
-13 1 75 0
-76 -57 0
-76 -75 0
57 75 76 0
76 57 -77 0
-76 -57 -77 0
76 -57 77 0
-76 57 77 0
75 77 -78 0
-75 -77 -78 0
75 -77 78 0
-75 77 78 0
-74 -78 -79 0
74 78 -79 0
-74 78 79 0
74 -78 79 0
-80 -62 0
-80 -60 0
62 60 80 0
25 -62 -81 0
-25 62 -81 0
25 62 81 0
-25 -62 81 0
-82 80 0
-82 -81 0
-80 81 82 0
-83 -79 0
-83 82 0
79 -82 83 0
84 -7 0
84 -27 0
7 27 -84 0
-85 -83 0
-85 -84 0
83 84 85 0
86 73 0
86 85 0
-73 -85 -86 0
-87 43 0
-87 2 0
-43 -2 87 0
-88 -86 0
-88 87 0
86 -87 88 0
58 -14 -89 0
-58 14 -89 0
58 14 89 0
-58 -14 89 0
-90 -23 0
-90 33 0
23 -33 90 0
91 46 0
91 -90 0
-46 90 -91 0
-92 89 0
-92 91 0
-89 -91 92 0
25 22 -93 0
-25 -22 -93 0
25 -22 93 0
-25 22 93 0
-13 11 -94 0
13 -11 -94 0
-13 -11 94 0
13 11 94 0
95 -94 0
95 -13 0
94 13 -95 0
96 95 0
96 -14 0
-95 14 -96 0
-93 96 -97 0
93 -96 -97 0
-93 -96 97 0
93 96 97 0
92 -97 -98 0
-92 97 -98 0
92 97 98 0
-92 -97 98 0
-99 -22 0
-99 -6 0
22 6 99 0
-100 5 0
-100 -99 0
-5 99 100 0
101 98 0
101 100 0
-98 -100 -101 0
22 -43 -102 0
-22 43 -102 0
22 43 102 0
-22 -43 102 0
103 -28 0
103 -27 0
28 27 -103 0
103 -51 -104 0
-103 51 -104 0
103 51 104 0
-103 -51 104 0
-105 -102 0
-105 104 0
102 -104 105 0
-106 101 0
-106 105 0
-101 -105 106 0
-107 -32 0
-107 -12 0
32 12 107 0
108 6 0
108 -32 0
-6 32 -108 0
109 -76 0
109 108 0
76 -108 -109 0
110 21 0
110 -109 0
-21 109 -110 0
-59 -110 -111 0
59 110 -111 0
-59 110 111 0
59 -110 111 0
112 107 0
112 111 0
-107 -111 -112 0
-113 12 0
-113 -27 0
-12 27 113 0
114 -113 0
114 -14 0
113 14 -114 0
115 112 0
115 114 0
-112 -114 -115 0
-116 -106 0
-116 115 0
106 -115 116 0
-117 -88 0
-117 -116 0
88 116 117 0
8 38 0
-116 -117 99 0
57 -63 0
74 -111 0
13 79 0
-107 24 34 -2 0
-44 49 -58 -73 -90 0
57 -44 0
26 87 -71 -1 -51 0
21 38 -101 87 -82 6 0
-72 -66 -99 -49 27 0
-103 59 0
-12 71 94 -104 -51 0
-19 -96 -86 -33 0
-95 109 4 0
16 -82 -56 50 -45 0
-41 36 13 -90 70 -15 0
114 -110 0
-14 87 103 117 -79 0
77 73 26 -111 49 0
-75 36 47 48 0
-1 -17 0
-71 45 98 93 -64 0
6 -15 0
-29 -77 89 -95 0
-49 59 -42 39 0
-41 35 25 -1 -60 -70 0
59 -108 -49 -117 71 -73 0
-65 57 55 0
-6 79 -23 43 -73 75 0
10 -112 -41 -115 0
10 87 -4 -94 65 5 0
99 -15 -38 -39 -20 23 0
-21 16 -34 -72 0
84 65 -111 -5 -117 0
116 98 12 -28 18 -83 0
67 -12 0
-12 -57 22 9 0
-18 -101 -41 12 0
-85 63 -51 94 0
91 67 0
48 -47 -59 -21 18 0
-44 81 96 59 38 0
101 -41 -95 -87 -24 0
85 80 -87 108 92 0
-40 -78 -32 0
-63 -82 -36 111 0
29 -82 -96 31 107 0
85 35 51 41 71 0
-117 -92 58 19 41 50 0
63 31 0
42 17 0
31 49 70 13 -115 21 0
-29 -74 64 49 -43 0
87 -101 113 -71 0
-116 -87 -104 70 0
14 88 25 48 -105 0
-16 -21 0
107 71 85 0
-107 -69 -16 -74 37 0
68 113 -86 0
-11 24 -33 -30 41 -101 0
-111 54 -62 -92 -73 -64 0
-98 -110 21 -43 0
94 -84 -17 0
46 90 -48 26 -21 -15 0
25 44 -61 0
117 0
